<number of tasks>
20

<cycle time>
1000

<order strength>
0,3


<task times>
1 61
2 367
3 145
4 205
5 297
6 65
7 238
8 38
9 108
10 82
11 33
12 256
13 188
14 194
15 216
16 101
17 52
18 162
19 87
20 35

<precedence relations>
1,7
2,7
3,7
4,7
5,8
5,9
7,10
7,11
7,12
7,13
9,14
11,16
11,17
12,15
14,18
18,19
18,20

<end>
